c nIsolatedPIs 0
c maxPI 32
p cnf 334 907
c gate 33 8 24 0
8 -33 0
24 -33 0
-8 -24 33 0
c gate 34 -7 -23 0
-7 -34 0
-23 -34 0
7 23 34 0
c gate 35 -6 -22 0
-6 -35 0
-22 -35 0
6 22 35 0
c gate 36 5 21 0
5 -36 0
21 -36 0
-5 -21 36 0
c gate 37 4 20 0
4 -37 0
20 -37 0
-4 -20 37 0
c gate 38 3 19 0
3 -38 0
19 -38 0
-3 -19 38 0
c gate 39 -2 18 0
-2 -39 0
18 -39 0
2 -18 39 0
c gate 40 2 -18 0
2 -40 0
-18 -40 0
-2 18 40 0
c gate 41 -39 -40 0
-39 -41 0
-40 -41 0
39 40 41 0
c gate 42 1 17 0
1 -42 0
17 -42 0
-1 -17 42 0
c gate 43 -41 42 0
-41 -43 0
42 -43 0
41 -42 43 0
c gate 44 2 18 0
2 -44 0
18 -44 0
-2 -18 44 0
c gate 45 -43 -44 0
-43 -45 0
-44 -45 0
43 44 45 0
c gate 46 18 -45 0
18 -46 0
-45 -46 0
-18 45 46 0
c gate 47 -38 -46 0
-38 -47 0
-46 -47 0
38 46 47 0
c gate 48 -4 -20 0
-4 -48 0
-20 -48 0
4 20 48 0
c gate 49 -37 -48 0
-37 -49 0
-48 -49 0
37 48 49 0
c gate 50 -47 49 0
-47 -50 0
49 -50 0
47 -49 50 0
c gate 51 -37 -50 0
-37 -51 0
-50 -51 0
37 50 51 0
c gate 52 -36 51 0
-36 -52 0
51 -52 0
36 -51 52 0
c gate 53 -35 -52 0
-35 -53 0
-52 -53 0
35 52 53 0
c gate 54 7 -23 0
7 -54 0
-23 -54 0
-7 23 54 0
c gate 55 -7 23 0
-7 -55 0
23 -55 0
7 -23 55 0
c gate 56 -54 -55 0
-54 -56 0
-55 -56 0
54 55 56 0
c gate 57 -53 -56 0
-53 -57 0
-56 -57 0
53 56 57 0
c gate 58 -34 -57 0
-34 -58 0
-57 -58 0
34 57 58 0
c gate 59 -33 -58 0
-33 -59 0
-58 -59 0
33 58 59 0
c gate 60 9 25 0
9 -60 0
25 -60 0
-9 -25 60 0
c gate 61 -9 -25 0
-9 -61 0
-25 -61 0
9 25 61 0
c gate 62 -60 -61 0
-60 -62 0
-61 -62 0
60 61 62 0
c gate 63 -59 62 0
-59 -63 0
62 -63 0
59 -62 63 0
c gate 64 59 -62 0
59 -64 0
-62 -64 0
-59 62 64 0
c gate 65 -63 -64 0
-63 -65 0
-64 -65 0
63 64 65 0
c gate 66 7 23 0
7 -66 0
23 -66 0
-7 -23 66 0
c gate 67 6 22 0
6 -67 0
22 -67 0
-6 -22 67 0
c gate 68 -5 21 0
-5 -68 0
21 -68 0
5 -21 68 0
c gate 69 5 -21 0
5 -69 0
-21 -69 0
-5 21 69 0
c gate 70 -68 -69 0
-68 -70 0
-69 -70 0
68 69 70 0
c gate 71 -3 19 0
-3 -71 0
19 -71 0
3 -19 71 0
c gate 72 3 -19 0
3 -72 0
-19 -72 0
-3 19 72 0
c gate 73 -71 -72 0
-71 -73 0
-72 -73 0
71 72 73 0
c gate 74 -45 -73 0
-45 -74 0
-73 -74 0
45 73 74 0
c gate 75 -38 -74 0
-38 -75 0
-74 -75 0
38 74 75 0
c gate 76 49 75 0
49 -76 0
75 -76 0
-49 -75 76 0
c gate 77 -48 -76 0
-48 -77 0
-76 -77 0
48 76 77 0
c gate 78 -70 77 0
-70 -78 0
77 -78 0
70 -77 78 0
c gate 79 -36 -78 0
-36 -79 0
-78 -79 0
36 78 79 0
c gate 80 6 -22 0
6 -80 0
-22 -80 0
-6 22 80 0
c gate 81 -6 22 0
-6 -81 0
22 -81 0
6 -22 81 0
c gate 82 -80 -81 0
-80 -82 0
-81 -82 0
80 81 82 0
c gate 83 -79 -82 0
-79 -83 0
-82 -83 0
79 82 83 0
c gate 84 -67 -83 0
-67 -84 0
-83 -84 0
67 83 84 0
c gate 85 -56 -84 0
-56 -85 0
-84 -85 0
56 84 85 0
c gate 86 -66 -85 0
-66 -86 0
-85 -86 0
66 85 86 0
c gate 87 -8 24 0
-8 -87 0
24 -87 0
8 -24 87 0
c gate 88 8 -24 0
8 -88 0
-24 -88 0
-8 24 88 0
c gate 89 -87 -88 0
-87 -89 0
-88 -89 0
87 88 89 0
c gate 90 -86 -89 0
-86 -90 0
-89 -90 0
86 89 90 0
c gate 91 -33 -90 0
-33 -91 0
-90 -91 0
33 90 91 0
c gate 92 62 91 0
62 -92 0
91 -92 0
-62 -91 92 0
c gate 93 -62 -91 0
-62 -93 0
-91 -93 0
62 91 93 0
c gate 94 -92 -93 0
-92 -94 0
-93 -94 0
92 93 94 0
c gate 95 65 94 0
65 -95 0
94 -95 0
-65 -94 95 0
c gate 96 -65 -94 0
-65 -96 0
-94 -96 0
65 94 96 0
c gate 97 -95 -96 0
-95 -97 0
-96 -97 0
95 96 97 0
c gate 98 86 89 0
86 -98 0
89 -98 0
-86 -89 98 0
c gate 99 -90 -98 0
-90 -99 0
-98 -99 0
90 98 99 0
c gate 100 58 89 0
58 -100 0
89 -100 0
-58 -89 100 0
c gate 101 -58 -89 0
-58 -101 0
-89 -101 0
58 89 101 0
c gate 102 -100 -101 0
-100 -102 0
-101 -102 0
100 101 102 0
c gate 103 -99 -102 0
-99 -103 0
-102 -103 0
99 102 103 0
c gate 104 99 102 0
99 -104 0
102 -104 0
-99 -102 104 0
c gate 105 53 56 0
53 -105 0
56 -105 0
-53 -56 105 0
c gate 106 -57 -105 0
-57 -106 0
-105 -106 0
57 105 106 0
c gate 107 56 84 0
56 -107 0
84 -107 0
-56 -84 107 0
c gate 108 -85 -107 0
-85 -108 0
-107 -108 0
85 107 108 0
c gate 109 -106 -108 0
-106 -109 0
-108 -109 0
106 108 109 0
c gate 110 106 108 0
106 -110 0
108 -110 0
-106 -108 110 0
c gate 111 79 82 0
79 -111 0
82 -111 0
-79 -82 111 0
c gate 112 -83 -111 0
-83 -112 0
-111 -112 0
83 111 112 0
c gate 113 52 82 0
52 -113 0
82 -113 0
-52 -82 113 0
c gate 114 -52 -82 0
-52 -114 0
-82 -114 0
52 82 114 0
c gate 115 -113 -114 0
-113 -115 0
-114 -115 0
113 114 115 0
c gate 116 -112 115 0
-112 -116 0
115 -116 0
112 -115 116 0
c gate 117 70 -77 0
70 -117 0
-77 -117 0
-70 77 117 0
c gate 118 -78 -117 0
-78 -118 0
-117 -118 0
78 117 118 0
c gate 119 51 -70 0
51 -119 0
-70 -119 0
-51 70 119 0
c gate 120 -51 70 0
-51 -120 0
70 -120 0
51 -70 120 0
c gate 121 -119 -120 0
-119 -121 0
-120 -121 0
119 120 121 0
c gate 122 118 121 0
118 -122 0
121 -122 0
-118 -121 122 0
c gate 123 112 -115 0
112 -123 0
-115 -123 0
-112 115 123 0
c gate 124 -116 -123 0
-116 -124 0
-123 -124 0
116 123 124 0
c gate 125 -122 124 0
-122 -125 0
124 -125 0
122 -124 125 0
c gate 126 -116 -125 0
-116 -126 0
-125 -126 0
116 125 126 0
c gate 127 -110 -126 0
-110 -127 0
-126 -127 0
110 126 127 0
c gate 128 18 -73 0
18 -128 0
-73 -128 0
-18 73 128 0
c gate 129 -45 -128 0
-45 -129 0
-128 -129 0
45 128 129 0
c gate 130 -118 -121 0
-118 -130 0
-121 -130 0
118 121 130 0
c gate 131 -2 74 0
-2 -131 0
74 -131 0
2 -74 131 0
c gate 132 -49 -75 0
-49 -132 0
-75 -132 0
49 75 132 0
c gate 133 -76 -132 0
-76 -133 0
-132 -133 0
76 132 133 0
c gate 134 47 -49 0
47 -134 0
-49 -134 0
-47 49 134 0
c gate 135 -50 -134 0
-50 -135 0
-134 -135 0
50 134 135 0
c gate 136 133 135 0
133 -136 0
135 -136 0
-133 -135 136 0
c gate 137 -131 -136 0
-131 -137 0
-136 -137 0
131 136 137 0
c gate 138 -130 137 0
-130 -138 0
137 -138 0
130 -137 138 0
c gate 139 125 138 0
125 -139 0
138 -139 0
-125 -138 139 0
c gate 140 129 139 0
129 -140 0
139 -140 0
-129 -139 140 0
c gate 141 127 -140 0
127 -141 0
-140 -141 0
-127 140 141 0
c gate 142 -109 -141 0
-109 -142 0
-141 -142 0
109 141 142 0
c gate 143 -104 -142 0
-104 -143 0
-142 -143 0
104 142 143 0
c gate 144 -103 -143 0
-103 -144 0
-143 -144 0
103 143 144 0
c gate 145 97 -144 0
97 -145 0
-144 -145 0
-97 144 145 0
c gate 146 11 27 0
11 -146 0
27 -146 0
-11 -27 146 0
c gate 147 10 26 0
10 -147 0
26 -147 0
-10 -26 147 0
c gate 148 -60 -63 0
-60 -148 0
-63 -148 0
60 63 148 0
c gate 149 -10 -26 0
-10 -149 0
-26 -149 0
10 26 149 0
c gate 150 -147 -149 0
-147 -150 0
-149 -150 0
147 149 150 0
c gate 151 -148 150 0
-148 -151 0
150 -151 0
148 -150 151 0
c gate 152 -147 -151 0
-147 -152 0
-151 -152 0
147 151 152 0
c gate 153 -11 -27 0
-11 -153 0
-27 -153 0
11 27 153 0
c gate 154 -146 -153 0
-146 -154 0
-153 -154 0
146 153 154 0
c gate 155 -152 154 0
-152 -155 0
154 -155 0
152 -154 155 0
c gate 156 -146 -155 0
-146 -156 0
-155 -156 0
146 155 156 0
c gate 157 -61 -92 0
-61 -157 0
-92 -157 0
61 92 157 0
c gate 158 150 -157 0
150 -158 0
-157 -158 0
-150 157 158 0
c gate 159 -149 -153 0
-149 -159 0
-153 -159 0
149 153 159 0
c gate 160 -158 159 0
-158 -160 0
159 -160 0
158 -159 160 0
c gate 161 -146 -160 0
-146 -161 0
-160 -161 0
146 160 161 0
c gate 162 -156 -161 0
-156 -162 0
-161 -162 0
156 161 162 0
c gate 163 -12 28 0
-12 -163 0
28 -163 0
12 -28 163 0
c gate 164 12 -28 0
12 -164 0
-28 -164 0
-12 28 164 0
c gate 165 -163 -164 0
-163 -165 0
-164 -165 0
163 164 165 0
c gate 166 -156 -165 0
-156 -166 0
-165 -166 0
156 165 166 0
c gate 167 160 165 0
160 -167 0
165 -167 0
-160 -165 167 0
c gate 168 -166 -167 0
-166 -168 0
-167 -168 0
166 167 168 0
c gate 169 -162 -168 0
-162 -169 0
-168 -169 0
162 168 169 0
c gate 170 152 -154 0
152 -170 0
-154 -170 0
-152 154 170 0
c gate 171 148 -150 0
148 -171 0
-150 -171 0
-148 150 171 0
c gate 172 -151 -171 0
-151 -172 0
-171 -172 0
151 171 172 0
c gate 173 -150 157 0
-150 -173 0
157 -173 0
150 -157 173 0
c gate 174 -158 -173 0
-158 -174 0
-173 -174 0
158 173 174 0
c gate 175 172 174 0
172 -175 0
174 -175 0
-172 -174 175 0
c gate 176 -172 -174 0
-172 -176 0
-174 -176 0
172 174 176 0
c gate 177 -175 -176 0
-175 -177 0
-176 -177 0
175 176 177 0
c gate 178 150 -177 0
150 -178 0
-177 -178 0
-150 177 178 0
c gate 179 -170 178 0
-170 -179 0
178 -179 0
170 -178 179 0
c gate 180 96 -175 0
96 -180 0
-175 -180 0
-96 175 180 0
c gate 181 -176 -180 0
-176 -181 0
-180 -181 0
176 180 181 0
c gate 182 -178 181 0
-178 -182 0
181 -182 0
178 -181 182 0
c gate 183 -179 -182 0
-179 -183 0
-182 -183 0
179 182 183 0
c gate 184 -169 -183 0
-169 -184 0
-183 -184 0
169 183 184 0
c gate 185 -97 184 0
-97 -185 0
184 -185 0
97 -184 185 0
c gate 186 154 -165 0
154 -186 0
-165 -186 0
-154 165 186 0
c gate 187 178 186 0
178 -187 0
186 -187 0
-178 -186 187 0
c gate 188 -185 -187 0
-185 -188 0
-187 -188 0
185 187 188 0
c gate 189 16 -32 0
16 -189 0
-32 -189 0
-16 32 189 0
c gate 190 -16 32 0
-16 -190 0
32 -190 0
16 -32 190 0
c gate 191 -189 -190 0
-189 -191 0
-190 -191 0
189 190 191 0
c gate 192 15 31 0
15 -192 0
31 -192 0
-15 -31 192 0
c gate 193 -15 -31 0
-15 -193 0
-31 -193 0
15 31 193 0
c gate 194 14 30 0
14 -194 0
30 -194 0
-14 -30 194 0
c gate 195 -13 -29 0
-13 -195 0
-29 -195 0
13 29 195 0
c gate 196 -14 -30 0
-14 -196 0
-30 -196 0
14 30 196 0
c gate 197 -195 -196 0
-195 -197 0
-196 -197 0
195 196 197 0
c gate 198 -12 -28 0
-12 -198 0
-28 -198 0
12 28 198 0
c gate 199 -161 -198 0
-161 -199 0
-198 -199 0
161 198 199 0
c gate 200 12 28 0
12 -200 0
28 -200 0
-12 -28 200 0
c gate 201 13 29 0
13 -201 0
29 -201 0
-13 -29 201 0
c gate 202 -200 -201 0
-200 -202 0
-201 -202 0
200 201 202 0
c gate 203 -199 202 0
-199 -203 0
202 -203 0
199 -202 203 0
c gate 204 197 -203 0
197 -204 0
-203 -204 0
-197 203 204 0
c gate 205 -194 -204 0
-194 -205 0
-204 -205 0
194 204 205 0
c gate 206 -193 -205 0
-193 -206 0
-205 -206 0
193 205 206 0
c gate 207 -192 -206 0
-192 -207 0
-206 -207 0
192 206 207 0
c gate 208 -191 207 0
-191 -208 0
207 -208 0
191 -207 208 0
c gate 209 191 -207 0
191 -209 0
-207 -209 0
-191 207 209 0
c gate 210 -208 -209 0
-208 -210 0
-209 -210 0
208 209 210 0
c gate 211 -166 -200 0
-166 -211 0
-200 -211 0
166 200 211 0
c gate 212 -201 211 0
-201 -212 0
211 -212 0
201 -211 212 0
c gate 213 197 -212 0
197 -213 0
-212 -213 0
-197 212 213 0
c gate 214 -194 -213 0
-194 -214 0
-213 -214 0
194 213 214 0
c gate 215 -193 -214 0
-193 -215 0
-214 -215 0
193 214 215 0
c gate 216 -192 -215 0
-192 -216 0
-215 -216 0
192 215 216 0
c gate 217 191 -216 0
191 -217 0
-216 -217 0
-191 216 217 0
c gate 218 -191 216 0
-191 -218 0
216 -218 0
191 -216 218 0
c gate 219 -217 -218 0
-217 -219 0
-218 -219 0
217 218 219 0
c gate 220 -210 219 0
-210 -220 0
219 -220 0
210 -219 220 0
c gate 221 210 -219 0
210 -221 0
-219 -221 0
-210 219 221 0
c gate 222 -14 30 0
-14 -222 0
30 -222 0
14 -30 222 0
c gate 223 14 -30 0
14 -223 0
-30 -223 0
-14 30 223 0
c gate 224 -222 -223 0
-222 -224 0
-223 -224 0
222 223 224 0
c gate 225 -192 -193 0
-192 -225 0
-193 -225 0
192 193 225 0
c gate 226 -13 29 0
-13 -226 0
29 -226 0
13 -29 226 0
c gate 227 13 -29 0
13 -227 0
-29 -227 0
-13 29 227 0
c gate 228 -226 -227 0
-226 -228 0
-227 -228 0
226 227 228 0
c gate 229 225 -228 0
225 -229 0
-228 -229 0
-225 228 229 0
c gate 230 -224 229 0
-224 -230 0
229 -230 0
224 -229 230 0
c gate 231 -160 -230 0
-160 -231 0
-230 -231 0
160 230 231 0
c gate 232 -155 230 0
-155 -232 0
230 -232 0
155 -230 232 0
c gate 233 -165 -232 0
-165 -233 0
-232 -233 0
165 232 233 0
c gate 234 -231 233 0
-231 -234 0
233 -234 0
231 -233 234 0
c gate 235 -162 234 0
-162 -235 0
234 -235 0
162 -234 235 0
c gate 236 -221 235 0
-221 -236 0
235 -236 0
221 -235 236 0
c gate 237 -220 -236 0
-220 -237 0
-236 -237 0
220 236 237 0
c gate 238 -188 237 0
-188 -238 0
237 -238 0
188 -237 238 0
c gate 239 -145 -238 0
-145 -239 0
-238 -239 0
145 238 239 0
c gate 240 211 221 0
211 -240 0
221 -240 0
-211 -221 240 0
c gate 241 208 215 0
208 -241 0
215 -241 0
-208 -215 241 0
c gate 242 -239 -241 0
-239 -242 0
-241 -242 0
239 241 242 0
c gate 243 -240 -242 0
-240 -243 0
-242 -243 0
240 242 243 0
c gate 244 4 -20 0
4 -244 0
-20 -244 0
-4 20 244 0
c gate 245 -1 17 0
-1 -245 0
17 -245 0
1 -17 245 0
c gate 246 -39 -245 0
-39 -246 0
-245 -246 0
39 245 246 0
c gate 247 -40 -72 0
-40 -247 0
-72 -247 0
40 72 247 0
c gate 248 -246 247 0
-246 -248 0
247 -248 0
246 -247 248 0
c gate 249 -71 -248 0
-71 -249 0
-248 -249 0
71 248 249 0
c gate 250 244 -249 0
244 -250 0
-249 -250 0
-244 249 250 0
c gate 251 -243 -250 0
-243 -251 0
-250 -251 0
243 250 251 0
c gate 252 56 70 0
56 -252 0
70 -252 0
-56 -70 252 0
c gate 253 82 252 0
82 -253 0
252 -253 0
-82 -252 253 0
c gate 254 250 253 0
250 -254 0
253 -254 0
-250 -253 254 0
c gate 255 -251 -254 0
-251 -255 0
-254 -255 0
251 254 255 0
c gate 256 -15 31 0
-15 -256 0
31 -256 0
15 -31 256 0
c gate 257 -11 27 0
-11 -257 0
27 -257 0
11 -27 257 0
c gate 258 10 -26 0
10 -258 0
-26 -258 0
-10 26 258 0
c gate 259 11 -27 0
11 -259 0
-27 -259 0
-11 27 259 0
c gate 260 -258 -259 0
-258 -260 0
-259 -260 0
258 259 260 0
c gate 261 -49 249 0
-49 -261 0
249 -261 0
49 -249 261 0
c gate 262 -69 -244 0
-69 -262 0
-244 -262 0
69 244 262 0
c gate 263 -261 262 0
-261 -263 0
262 -263 0
261 -262 263 0
c gate 264 -68 -263 0
-68 -264 0
-263 -264 0
68 263 264 0
c gate 265 -80 -264 0
-80 -265 0
-264 -265 0
80 264 265 0
c gate 266 -55 -81 0
-55 -266 0
-81 -266 0
55 81 266 0
c gate 267 -265 266 0
-265 -267 0
266 -267 0
265 -266 267 0
c gate 268 -54 -267 0
-54 -268 0
-267 -268 0
54 267 268 0
c gate 269 -87 -268 0
-87 -269 0
-268 -269 0
87 268 269 0
c gate 270 9 -25 0
9 -270 0
-25 -270 0
-9 25 270 0
c gate 271 -88 -270 0
-88 -271 0
-270 -271 0
88 270 271 0
c gate 272 -269 271 0
-269 -272 0
271 -272 0
269 -271 272 0
c gate 273 -10 26 0
-10 -273 0
26 -273 0
10 -26 273 0
c gate 274 -9 25 0
-9 -274 0
25 -274 0
9 -25 274 0
c gate 275 -273 -274 0
-273 -275 0
-274 -275 0
273 274 275 0
c gate 276 -272 275 0
-272 -276 0
275 -276 0
272 -275 276 0
c gate 277 260 -276 0
260 -277 0
-276 -277 0
-260 276 277 0
c gate 278 -257 -277 0
-257 -278 0
-277 -278 0
257 277 278 0
c gate 279 260 271 0
260 -279 0
271 -279 0
-260 -271 279 0
c gate 280 254 279 0
254 -280 0
279 -280 0
-254 -279 280 0
c gate 281 -163 -280 0
-163 -281 0
-280 -281 0
163 280 281 0
c gate 282 278 281 0
278 -282 0
281 -282 0
-278 -281 282 0
c gate 283 -164 -227 0
-164 -283 0
-227 -283 0
164 227 283 0
c gate 284 -282 283 0
-282 -284 0
283 -284 0
282 -283 284 0
c gate 285 -226 -284 0
-226 -285 0
-284 -285 0
226 284 285 0
c gate 286 -223 -285 0
-223 -286 0
-285 -286 0
223 285 286 0
c gate 287 -222 -286 0
-222 -287 0
-286 -287 0
222 286 287 0
c gate 288 15 -31 0
15 -288 0
-31 -288 0
-15 31 288 0
c gate 289 -287 -288 0
-287 -289 0
-288 -289 0
287 288 289 0
c gate 290 -256 -289 0
-256 -290 0
-289 -290 0
256 289 290 0
c gate 291 191 -290 0
191 -291 0
-290 -291 0
-191 290 291 0
c gate 292 -164 -278 0
-164 -292 0
-278 -292 0
164 278 292 0
c gate 293 -163 -226 0
-163 -293 0
-226 -293 0
163 226 293 0
c gate 294 -292 293 0
-292 -294 0
293 -294 0
292 -293 294 0
c gate 295 -227 -294 0
-227 -295 0
-294 -295 0
227 294 295 0
c gate 296 -222 -295 0
-222 -296 0
-295 -296 0
222 295 296 0
c gate 297 -223 -296 0
-223 -297 0
-296 -297 0
223 296 297 0
c gate 298 -256 -297 0
-256 -298 0
-297 -298 0
256 297 298 0
c gate 299 -288 -298 0
-288 -299 0
-298 -299 0
288 298 299 0
c gate 300 191 299 0
191 -300 0
299 -300 0
-191 -299 300 0
c gate 301 289 298 0
289 -301 0
298 -301 0
-289 -298 301 0
c gate 302 -300 -301 0
-300 -302 0
-301 -302 0
300 301 302 0
c gate 303 -291 -302 0
-291 -303 0
-302 -303 0
291 302 303 0
c gate 304 225 -287 0
225 -304 0
-287 -304 0
-225 287 304 0
c gate 305 -297 304 0
-297 -305 0
304 -305 0
297 -304 305 0
c gate 306 -225 287 0
-225 -306 0
287 -306 0
225 -287 306 0
c gate 307 297 306 0
297 -307 0
306 -307 0
-297 -306 307 0
c gate 308 -62 -150 0
-62 -308 0
-150 -308 0
62 150 308 0
c gate 309 89 -154 0
89 -309 0
-154 -309 0
-89 154 309 0
c gate 310 308 309 0
308 -310 0
309 -310 0
-308 -309 310 0
c gate 311 -268 -310 0
-268 -311 0
-310 -311 0
268 310 311 0
c gate 312 165 228 0
165 -312 0
228 -312 0
-165 -228 312 0
c gate 313 279 -312 0
279 -313 0
-312 -313 0
-279 312 313 0
c gate 314 278 313 0
278 -314 0
313 -314 0
-278 -313 314 0
c gate 315 -311 -314 0
-311 -315 0
-314 -315 0
311 314 315 0
c gate 316 254 -315 0
254 -316 0
-315 -316 0
-254 315 316 0
c gate 317 -224 -285 0
-224 -317 0
-285 -317 0
224 285 317 0
c gate 318 -295 317 0
-295 -318 0
317 -318 0
295 -317 318 0
c gate 319 -316 -318 0
-316 -319 0
-318 -319 0
316 318 319 0
c gate 320 -307 319 0
-307 -320 0
319 -320 0
307 -319 320 0
c gate 321 -305 320 0
-305 -321 0
320 -321 0
305 -320 321 0
c gate 322 -303 321 0
-303 -322 0
321 -322 0
303 -321 322 0
c gate 323 -255 322 0
-255 -323 0
322 -323 0
255 -322 323 0
c gate 324 -239 323 0
-239 -324 0
323 -324 0
239 -323 324 0
c gate 325 127 -139 0
127 -325 0
-139 -325 0
-127 139 325 0
c gate 326 -109 -325 0
-109 -326 0
-325 -326 0
109 325 326 0
c gate 327 -104 -326 0
-104 -327 0
-326 -327 0
104 326 327 0
c gate 328 -103 -327 0
-103 -328 0
-327 -328 0
103 327 328 0
c gate 329 97 328 0
97 -329 0
328 -329 0
-97 -328 329 0
c gate 330 184 -329 0
184 -330 0
-329 -330 0
-184 329 330 0
c gate 331 -187 -330 0
-187 -331 0
-330 -331 0
187 330 331 0
c gate 332 237 -331 0
237 -332 0
-331 -332 0
-237 331 332 0
c gate 333 -323 -332 0
-323 -333 0
-332 -333 0
323 332 333 0
c gate 334 -324 -333 0
-324 -334 0
-333 -334 0
324 333 334 0
c PO
334 0
